(set-logic QF_LRA)
(declare-fun X0 () Real )
(declare-fun Y0 () Real )
(declare-fun X1 () Real )
(declare-fun Y1 () Real )
(declare-fun X2 () Real )
(declare-fun Y2 () Real )
(declare-fun X3 () Real )
(declare-fun Y3 () Real )
(declare-fun X4 () Real )
(declare-fun Y4 () Real )
(declare-fun X5 () Real )
(declare-fun Y5 () Real )
(declare-fun X6 () Real )
(declare-fun Y6 () Real )
(declare-fun X7 () Real )
(declare-fun Y7 () Real )
(declare-fun X8 () Real )
(declare-fun Y8 () Real )
(declare-fun X9 () Real )
(declare-fun Y9 () Real )
(declare-fun X10 () Real )
(declare-fun Y10 () Real )
(declare-fun X11 () Real )
(declare-fun Y11 () Real )
(declare-fun Z () Real )
(assert ( and  
( or ( <= ( + X0 87 ) X1 )  ( <= ( + X1 62 ) X0 )  ( <= ( + Y0 87 ) Y1 )  ( <= ( + Y1 88 ) Y0 )  )
( or ( <= ( + X0 87 ) X2 )  ( <= ( + X2 54 ) X0 )  ( <= ( + Y0 87 ) Y2 )  ( <= ( + Y2 25 ) Y0 )  )
( or ( <= ( + X0 87 ) X3 )  ( <= ( + X3 39 ) X0 )  ( <= ( + Y0 87 ) Y3 )  ( <= ( + Y3 37 ) Y0 )  )
( or ( <= ( + X0 87 ) X4 )  ( <= ( + X4 87 ) X0 )  ( <= ( + Y0 87 ) Y4 )  ( <= ( + Y4 20 ) Y0 )  )
( or ( <= ( + X0 87 ) X5 )  ( <= ( + X5 16 ) X0 )  ( <= ( + Y0 87 ) Y5 )  ( <= ( + Y5 32 ) Y0 )  )
( or ( <= ( + X0 87 ) X6 )  ( <= ( + X6 79 ) X0 )  ( <= ( + Y0 87 ) Y6 )  ( <= ( + Y6 81 ) Y0 )  )
( or ( <= ( + X0 87 ) X7 )  ( <= ( + X7 35 ) X0 )  ( <= ( + Y0 87 ) Y7 )  ( <= ( + Y7 77 ) Y0 )  )
( or ( <= ( + X0 87 ) X8 )  ( <= ( + X8 73 ) X0 )  ( <= ( + Y0 87 ) Y8 )  ( <= ( + Y8 95 ) Y0 )  )
( or ( <= ( + X0 87 ) X9 )  ( <= ( + X9 32 ) X0 )  ( <= ( + Y0 87 ) Y9 )  ( <= ( + Y9 80 ) Y0 )  )
( or ( <= ( + X0 87 ) X10 )  ( <= ( + X10 15 ) X0 )  ( <= ( + Y0 87 ) Y10 )  ( <= ( + Y10 5 ) Y0 )  )
( or ( <= ( + X0 87 ) X11 )  ( <= ( + X11 49 ) X0 )  ( <= ( + Y0 87 ) Y11 )  ( <= ( + Y11 88 ) Y0 )  )
( or ( <= ( + X1 62 ) X2 )  ( <= ( + X2 54 ) X1 )  ( <= ( + Y1 88 ) Y2 )  ( <= ( + Y2 25 ) Y1 )  )
( or ( <= ( + X1 62 ) X3 )  ( <= ( + X3 39 ) X1 )  ( <= ( + Y1 88 ) Y3 )  ( <= ( + Y3 37 ) Y1 )  )
( or ( <= ( + X1 62 ) X4 )  ( <= ( + X4 87 ) X1 )  ( <= ( + Y1 88 ) Y4 )  ( <= ( + Y4 20 ) Y1 )  )
( or ( <= ( + X1 62 ) X5 )  ( <= ( + X5 16 ) X1 )  ( <= ( + Y1 88 ) Y5 )  ( <= ( + Y5 32 ) Y1 )  )
( or ( <= ( + X1 62 ) X6 )  ( <= ( + X6 79 ) X1 )  ( <= ( + Y1 88 ) Y6 )  ( <= ( + Y6 81 ) Y1 )  )
( or ( <= ( + X1 62 ) X7 )  ( <= ( + X7 35 ) X1 )  ( <= ( + Y1 88 ) Y7 )  ( <= ( + Y7 77 ) Y1 )  )
( or ( <= ( + X1 62 ) X8 )  ( <= ( + X8 73 ) X1 )  ( <= ( + Y1 88 ) Y8 )  ( <= ( + Y8 95 ) Y1 )  )
( or ( <= ( + X1 62 ) X9 )  ( <= ( + X9 32 ) X1 )  ( <= ( + Y1 88 ) Y9 )  ( <= ( + Y9 80 ) Y1 )  )
( or ( <= ( + X1 62 ) X10 )  ( <= ( + X10 15 ) X1 )  ( <= ( + Y1 88 ) Y10 )  ( <= ( + Y10 5 ) Y1 )  )
( or ( <= ( + X1 62 ) X11 )  ( <= ( + X11 49 ) X1 )  ( <= ( + Y1 88 ) Y11 )  ( <= ( + Y11 88 ) Y1 )  )
( or ( <= ( + X2 54 ) X3 )  ( <= ( + X3 39 ) X2 )  ( <= ( + Y2 25 ) Y3 )  ( <= ( + Y3 37 ) Y2 )  )
( or ( <= ( + X2 54 ) X4 )  ( <= ( + X4 87 ) X2 )  ( <= ( + Y2 25 ) Y4 )  ( <= ( + Y4 20 ) Y2 )  )
( or ( <= ( + X2 54 ) X5 )  ( <= ( + X5 16 ) X2 )  ( <= ( + Y2 25 ) Y5 )  ( <= ( + Y5 32 ) Y2 )  )
( or ( <= ( + X2 54 ) X6 )  ( <= ( + X6 79 ) X2 )  ( <= ( + Y2 25 ) Y6 )  ( <= ( + Y6 81 ) Y2 )  )
( or ( <= ( + X2 54 ) X7 )  ( <= ( + X7 35 ) X2 )  ( <= ( + Y2 25 ) Y7 )  ( <= ( + Y7 77 ) Y2 )  )
( or ( <= ( + X2 54 ) X8 )  ( <= ( + X8 73 ) X2 )  ( <= ( + Y2 25 ) Y8 )  ( <= ( + Y8 95 ) Y2 )  )
( or ( <= ( + X2 54 ) X9 )  ( <= ( + X9 32 ) X2 )  ( <= ( + Y2 25 ) Y9 )  ( <= ( + Y9 80 ) Y2 )  )
( or ( <= ( + X2 54 ) X10 )  ( <= ( + X10 15 ) X2 )  ( <= ( + Y2 25 ) Y10 )  ( <= ( + Y10 5 ) Y2 )  )
( or ( <= ( + X2 54 ) X11 )  ( <= ( + X11 49 ) X2 )  ( <= ( + Y2 25 ) Y11 )  ( <= ( + Y11 88 ) Y2 )  )
( or ( <= ( + X3 39 ) X4 )  ( <= ( + X4 87 ) X3 )  ( <= ( + Y3 37 ) Y4 )  ( <= ( + Y4 20 ) Y3 )  )
( or ( <= ( + X3 39 ) X5 )  ( <= ( + X5 16 ) X3 )  ( <= ( + Y3 37 ) Y5 )  ( <= ( + Y5 32 ) Y3 )  )
( or ( <= ( + X3 39 ) X6 )  ( <= ( + X6 79 ) X3 )  ( <= ( + Y3 37 ) Y6 )  ( <= ( + Y6 81 ) Y3 )  )
( or ( <= ( + X3 39 ) X7 )  ( <= ( + X7 35 ) X3 )  ( <= ( + Y3 37 ) Y7 )  ( <= ( + Y7 77 ) Y3 )  )
( or ( <= ( + X3 39 ) X8 )  ( <= ( + X8 73 ) X3 )  ( <= ( + Y3 37 ) Y8 )  ( <= ( + Y8 95 ) Y3 )  )
( or ( <= ( + X3 39 ) X9 )  ( <= ( + X9 32 ) X3 )  ( <= ( + Y3 37 ) Y9 )  ( <= ( + Y9 80 ) Y3 )  )
( or ( <= ( + X3 39 ) X10 )  ( <= ( + X10 15 ) X3 )  ( <= ( + Y3 37 ) Y10 )  ( <= ( + Y10 5 ) Y3 )  )
( or ( <= ( + X3 39 ) X11 )  ( <= ( + X11 49 ) X3 )  ( <= ( + Y3 37 ) Y11 )  ( <= ( + Y11 88 ) Y3 )  )
( or ( <= ( + X4 87 ) X5 )  ( <= ( + X5 16 ) X4 )  ( <= ( + Y4 20 ) Y5 )  ( <= ( + Y5 32 ) Y4 )  )
( or ( <= ( + X4 87 ) X6 )  ( <= ( + X6 79 ) X4 )  ( <= ( + Y4 20 ) Y6 )  ( <= ( + Y6 81 ) Y4 )  )
( or ( <= ( + X4 87 ) X7 )  ( <= ( + X7 35 ) X4 )  ( <= ( + Y4 20 ) Y7 )  ( <= ( + Y7 77 ) Y4 )  )
( or ( <= ( + X4 87 ) X8 )  ( <= ( + X8 73 ) X4 )  ( <= ( + Y4 20 ) Y8 )  ( <= ( + Y8 95 ) Y4 )  )
( or ( <= ( + X4 87 ) X9 )  ( <= ( + X9 32 ) X4 )  ( <= ( + Y4 20 ) Y9 )  ( <= ( + Y9 80 ) Y4 )  )
( or ( <= ( + X4 87 ) X10 )  ( <= ( + X10 15 ) X4 )  ( <= ( + Y4 20 ) Y10 )  ( <= ( + Y10 5 ) Y4 )  )
( or ( <= ( + X4 87 ) X11 )  ( <= ( + X11 49 ) X4 )  ( <= ( + Y4 20 ) Y11 )  ( <= ( + Y11 88 ) Y4 )  )
( or ( <= ( + X5 16 ) X6 )  ( <= ( + X6 79 ) X5 )  ( <= ( + Y5 32 ) Y6 )  ( <= ( + Y6 81 ) Y5 )  )
( or ( <= ( + X5 16 ) X7 )  ( <= ( + X7 35 ) X5 )  ( <= ( + Y5 32 ) Y7 )  ( <= ( + Y7 77 ) Y5 )  )
( or ( <= ( + X5 16 ) X8 )  ( <= ( + X8 73 ) X5 )  ( <= ( + Y5 32 ) Y8 )  ( <= ( + Y8 95 ) Y5 )  )
( or ( <= ( + X5 16 ) X9 )  ( <= ( + X9 32 ) X5 )  ( <= ( + Y5 32 ) Y9 )  ( <= ( + Y9 80 ) Y5 )  )
( or ( <= ( + X5 16 ) X10 )  ( <= ( + X10 15 ) X5 )  ( <= ( + Y5 32 ) Y10 )  ( <= ( + Y10 5 ) Y5 )  )
( or ( <= ( + X5 16 ) X11 )  ( <= ( + X11 49 ) X5 )  ( <= ( + Y5 32 ) Y11 )  ( <= ( + Y11 88 ) Y5 )  )
( or ( <= ( + X6 79 ) X7 )  ( <= ( + X7 35 ) X6 )  ( <= ( + Y6 81 ) Y7 )  ( <= ( + Y7 77 ) Y6 )  )
( or ( <= ( + X6 79 ) X8 )  ( <= ( + X8 73 ) X6 )  ( <= ( + Y6 81 ) Y8 )  ( <= ( + Y8 95 ) Y6 )  )
( or ( <= ( + X6 79 ) X9 )  ( <= ( + X9 32 ) X6 )  ( <= ( + Y6 81 ) Y9 )  ( <= ( + Y9 80 ) Y6 )  )
( or ( <= ( + X6 79 ) X10 )  ( <= ( + X10 15 ) X6 )  ( <= ( + Y6 81 ) Y10 )  ( <= ( + Y10 5 ) Y6 )  )
( or ( <= ( + X6 79 ) X11 )  ( <= ( + X11 49 ) X6 )  ( <= ( + Y6 81 ) Y11 )  ( <= ( + Y11 88 ) Y6 )  )
( or ( <= ( + X7 35 ) X8 )  ( <= ( + X8 73 ) X7 )  ( <= ( + Y7 77 ) Y8 )  ( <= ( + Y8 95 ) Y7 )  )
( or ( <= ( + X7 35 ) X9 )  ( <= ( + X9 32 ) X7 )  ( <= ( + Y7 77 ) Y9 )  ( <= ( + Y9 80 ) Y7 )  )
( or ( <= ( + X7 35 ) X10 )  ( <= ( + X10 15 ) X7 )  ( <= ( + Y7 77 ) Y10 )  ( <= ( + Y10 5 ) Y7 )  )
( or ( <= ( + X7 35 ) X11 )  ( <= ( + X11 49 ) X7 )  ( <= ( + Y7 77 ) Y11 )  ( <= ( + Y11 88 ) Y7 )  )
( or ( <= ( + X8 73 ) X9 )  ( <= ( + X9 32 ) X8 )  ( <= ( + Y8 95 ) Y9 )  ( <= ( + Y9 80 ) Y8 )  )
( or ( <= ( + X8 73 ) X10 )  ( <= ( + X10 15 ) X8 )  ( <= ( + Y8 95 ) Y10 )  ( <= ( + Y10 5 ) Y8 )  )
( or ( <= ( + X8 73 ) X11 )  ( <= ( + X11 49 ) X8 )  ( <= ( + Y8 95 ) Y11 )  ( <= ( + Y11 88 ) Y8 )  )
( or ( <= ( + X9 32 ) X10 )  ( <= ( + X10 15 ) X9 )  ( <= ( + Y9 80 ) Y10 )  ( <= ( + Y10 5 ) Y9 )  )
( or ( <= ( + X9 32 ) X11 )  ( <= ( + X11 49 ) X9 )  ( <= ( + Y9 80 ) Y11 )  ( <= ( + Y11 88 ) Y9 )  )
( or ( <= ( + X10 15 ) X11 )  ( <= ( + X11 49 ) X10 )  ( <= ( + Y10 5 ) Y11 )  ( <= ( + Y11 88 ) Y10 )  )
( >= X0 0)
( <= ( + X0 87) Z)
( >= Y0 0)
( <= ( + Y0 87 ) 173)
( >= X1 0)
( <= ( + X1 62) Z)
( >= Y1 0)
( <= ( + Y1 88 ) 173)
( >= X2 0)
( <= ( + X2 54) Z)
( >= Y2 0)
( <= ( + Y2 25 ) 173)
( >= X3 0)
( <= ( + X3 39) Z)
( >= Y3 0)
( <= ( + Y3 37 ) 173)
( >= X4 0)
( <= ( + X4 87) Z)
( >= Y4 0)
( <= ( + Y4 20 ) 173)
( >= X5 0)
( <= ( + X5 16) Z)
( >= Y5 0)
( <= ( + Y5 32 ) 173)
( >= X6 0)
( <= ( + X6 79) Z)
( >= Y6 0)
( <= ( + Y6 81 ) 173)
( >= X7 0)
( <= ( + X7 35) Z)
( >= Y7 0)
( <= ( + Y7 77 ) 173)
( >= X8 0)
( <= ( + X8 73) Z)
( >= Y8 0)
( <= ( + Y8 95 ) 173)
( >= X9 0)
( <= ( + X9 32) Z)
( >= Y9 0)
( <= ( + Y9 80 ) 173)
( >= X10 0)
( <= ( + X10 15) Z)
( >= Y10 0)
( <= ( + Y10 5 ) 173)
( >= X11 0)
( <= ( + X11 49) Z)
( >= Y11 0)
( <= ( + Y11 88 ) 173)
) )
(minimize Z)
(check-sat)
